% seed = 7663244

mint = 32;
% maxt = 84;

nActs = 22;
dur = [0,4,2,1,1,5,8,1,4,1,9,2,1,8,4,1,8,6,3,7,8,0];

nSkills = 4;
sreq = [| 0,0,0,0,
	| 0,0,3,3,
	| 2,0,3,0,
	| 3,1,2,1,
	| 0,3,0,1,
	| 0,0,2,3,
	| 3,0,3,1,
	| 2,3,2,2,
	| 1,1,3,3,
	| 3,1,1,0,
	| 3,0,2,1,
	| 2,1,0,2,
	| 1,2,2,1,
	| 2,1,2,1,
	| 0,3,3,0,
	| 2,2,0,3,
	| 0,2,3,0,
	| 2,2,3,0,
	| 3,0,3,0,
	| 2,3,0,0,
	| 2,1,1,1,
	| 0,0,0,0, |];

nResources = 25;
mastery = [| false,false,false,true,
	| false,true,false,false,
	| false,false,false,true,
	| true,true,false,true,
	| true,true,true,false,
	| false,true,true,false,
	| true,false,false,false,
	| true,false,false,true,
	| false,true,true,true,
	| true,false,true,false,
	| true,false,true,false,
	| false,false,false,true,
	| true,true,false,false,
	| true,false,true,true,
	| false,false,true,true,
	| false,true,false,false,
	| false,true,false,false,
	| false,false,true,false,
	| false,true,true,true,
	| false,false,false,true,
	| true,false,false,false,
	| true,true,true,false,
	| true,false,false,true,
	| true,false,true,false,
	| true,true,true,false, |];

nPrecs = 31;
pred = [1,1,1,2,2,3,4,4,4,5,5,6,7,8,9,9,10,11,12,13,14,15,15,15,16,17,18,18,19,20,21];
succ = [2,3,4,6,14,10,11,5,8,14,7,17,9,15,10,12,13,15,17,18,15,17,18,16,21,21,19,20,22,22,22];

nUnrels = 88;
unpred = [2,2,2,2,2,2,2,2,2,2,3,3,3,3,3,3,3,3,3,3,3,3,3,4,5,5,5,6,6,6,6,6,6,6,6,6,6,6,6,6,7,7,7,7,7,8,8,8,8,8,8,9,9,9,9,10,10,10,10,10,10,10,11,11,11,12,12,12,12,12,12,12,13,13,13,13,13,16,16,16,16,17,17,17,18,19,19,20];
unsucc = [3,4,5,7,8,9,10,11,12,13,4,5,6,7,8,9,11,12,14,15,16,17,21,6,6,8,11,7,8,9,10,11,12,13,14,15,16,18,19,20,8,11,14,15,16,9,10,11,12,13,14,11,14,15,16,11,12,14,15,16,17,21,12,13,14,13,14,15,16,18,19,20,14,15,16,17,21,17,18,19,20,18,19,20,21,20,21,21];

USEFUL_RES = [{},
	{1,3,4,5,6,8,9,10,11,12,14,15,18,19,20,22,23,24,25},
	{4,5,6,7,8,9,10,11,13,14,15,18,19,21,22,23,24,25},
	{1,2,3,4,5,6,7,8,9,10,11,12,13,14,15,16,17,18,19,20,21,22,23,24,25},
	{1,2,3,4,5,6,8,9,12,13,14,15,16,17,19,20,22,23,25},
	{1,3,4,5,6,8,9,10,11,12,14,15,18,19,20,22,23,24,25},
	{1,3,4,5,6,7,8,9,10,11,12,13,14,15,18,19,20,21,22,23,24,25},
	{1,2,3,4,5,6,7,8,9,10,11,12,13,14,15,16,17,18,19,20,21,22,23,24,25},
	{1,2,3,4,5,6,7,8,9,10,11,12,13,14,15,16,17,18,19,20,21,22,23,24,25},
	{2,4,5,6,7,8,9,10,11,13,14,15,16,17,18,19,21,22,23,24,25},
	{1,3,4,5,6,7,8,9,10,11,12,13,14,15,18,19,20,21,22,23,24,25},
	{1,2,3,4,5,6,7,8,9,10,11,12,13,14,15,16,17,19,20,21,22,23,24,25},
	{1,2,3,4,5,6,7,8,9,10,11,12,13,14,15,16,17,18,19,20,21,22,23,24,25},
	{1,2,3,4,5,6,7,8,9,10,11,12,13,14,15,16,17,18,19,20,21,22,23,24,25},
	{2,4,5,6,9,10,11,13,14,15,16,17,18,19,22,24,25},
	{1,2,3,4,5,6,7,8,9,10,11,12,13,14,15,16,17,19,20,21,22,23,24,25},
	{2,4,5,6,9,10,11,13,14,15,16,17,18,19,22,24,25},
	{2,4,5,6,7,8,9,10,11,13,14,15,16,17,18,19,21,22,23,24,25},
	{4,5,6,7,8,9,10,11,13,14,15,18,19,21,22,23,24,25},
	{2,4,5,6,7,8,9,10,11,13,14,16,17,19,21,22,23,24,25},
	{1,2,3,4,5,6,7,8,9,10,11,12,13,14,15,16,17,18,19,20,21,22,23,24,25},
	{}];

POTENTIAL_ACT = [{2,4,5,6,7,8,9,11,12,13,14,16,21},
	{4,5,8,9,10,12,13,14,15,16,17,18,20,21},
	{2,4,5,6,7,8,9,11,12,13,14,16,21},
	{2,3,4,5,6,7,8,9,10,11,12,13,14,15,16,17,18,19,20,21},
	{2,3,4,5,6,7,8,9,10,11,12,13,14,15,16,17,18,19,20,21},
	{2,3,4,5,6,7,8,9,10,11,12,13,14,15,16,17,18,19,20,21},
	{3,4,7,8,9,10,11,12,13,14,16,18,19,20,21},
	{2,3,4,5,6,7,8,9,10,11,12,13,14,16,18,19,20,21},
	{2,3,4,5,6,7,8,9,10,11,12,13,14,15,16,17,18,19,20,21},
	{2,3,4,6,7,8,9,10,11,12,13,14,15,16,17,18,19,20,21},
	{2,3,4,6,7,8,9,10,11,12,13,14,15,16,17,18,19,20,21},
	{2,4,5,6,7,8,9,11,12,13,14,16,21},
	{3,4,5,7,8,9,10,11,12,13,14,15,16,17,18,19,20,21},
	{2,3,4,5,6,7,8,9,10,11,12,13,14,15,16,17,18,19,20,21},
	{2,3,4,5,6,7,8,9,10,11,12,13,14,15,16,17,18,19,21},
	{4,5,8,9,10,12,13,14,15,16,17,18,20,21},
	{4,5,8,9,10,12,13,14,15,16,17,18,20,21},
	{2,3,4,6,7,8,9,10,11,13,14,15,17,18,19,21},
	{2,3,4,5,6,7,8,9,10,11,12,13,14,15,16,17,18,19,20,21},
	{2,4,5,6,7,8,9,11,12,13,14,16,21},
	{3,4,7,8,9,10,11,12,13,14,16,18,19,20,21},
	{2,3,4,5,6,7,8,9,10,11,12,13,14,15,16,17,18,19,20,21},
	{2,3,4,5,6,7,8,9,10,11,12,13,14,16,18,19,20,21},
	{2,3,4,6,7,8,9,10,11,12,13,14,15,16,17,18,19,20,21},
	{2,3,4,5,6,7,8,9,10,11,12,13,14,15,16,17,18,19,20,21}];
